71
125
100	2
99	2
98	1
97	6
96	2
95	4
93	6
92	1
90	2
89	1
88	2
87	4
86	2
85	4
84	3
83	1
82	1
81	2
80	1
79	1
78	6
77	2
76	1
75	1
74	5
73	3
72	3
71	3
70	4
69	4
68	3
67	4
66	3
65	3
64	2
63	6
61	2
60	3
59	1
58	3
57	6
56	1
55	2
54	5
53	2
52	1
51	4
50	2
49	8
48	3
47	4
46	2
45	4
44	3
43	2
42	2
41	1
40	2
39	5
38	3
37	2
36	1
35	2
33	3
31	5
30	1
29	2
28	5
27	3
26	2
25	2
